p cnf 7230 16
484 -769 0
486 -763 0
-484 -767 768 0
-486 -761 762 0
484 -772 0
-484 -770 771 0
486 -766 0
-486 -764 765 0
-768 769 0
-762 763 0
-771 772 0
770 -772 0
767 -769 0
-765 766 0
764 -766 0
761 -763 0
